SECTION Graph
Nodes 812
Edges 811

E 1 9 100
E 1 513 100
E 2 6 100
E 2 34 100
E 2 66 100
E 3 7 101
E 3 515 100
E 4 20 100
E 6 518 100
E 7 15 100
E 7 135 101
E 8 16 100
E 8 136 103
E 9 265 100
E 10 522 100
E 11 15 103
E 13 77 101
E 15 31 101
E 15 47 101
E 15 271 101
E 16 528 100
E 18 22 101
E 19 20 101
E 19 275 101
E 20 84 101
E 21 22 101
E 21 53 100
E 22 24 100
E 22 30 101
E 22 54 101
E 22 150 101
E 25 537 102
E 27 31 101
E 27 155 103
E 28 156 104
E 31 63 101
E 34 162 100
E 34 290 100
E 35 39 100
E 37 38 103
E 38 40 101
E 38 294 100
E 39 55 101
E 40 296 101
E 41 57 100
E 44 172 101
E 46 174 100
E 49 113 101
E 50 52 102
E 50 306 100
E 52 564 101
E 53 55 100
E 53 61 101
E 53 181 103
E 54 566 100
E 55 119 100
E 55 567 100
E 57 58 100
E 58 62 100
E 58 570 101
E 59 571 101
E 61 63 100
E 62 126 100
E 62 318 100
E 64 320 101
E 64 576 100
E 67 68 100
E 67 75 101
E 68 100 100
E 68 580 101
E 69 197 100
E 71 199 102
E 71 583 100
E 72 104 101
E 72 328 102
E 73 74 100
E 73 585 100
E 74 106 100
E 75 587 100
E 76 332 101
E 77 79 101
E 77 109 101
E 77 333 101
E 77 589 100
E 78 334 104
E 81 85 102
E 81 593 100
E 82 84 100
E 82 90 102
E 84 116 101
E 85 213 100
E 85 597 101
E 86 88 100
E 87 119 100
E 87 343 101
E 87 599 100
E 88 216 100
E 88 344 102
E 91 603 100
E 93 125 101
E 95 96 101
E 95 351 101
E 96 608 100
E 97 353 100
E 98 102 101
E 98 106 100
E 98 610 100
E 99 107 100
E 99 115 101
E 100 356 100
E 103 359 101
E 104 120 101
E 105 107 100
E 105 233 100
E 105 361 100
E 112 240 100
E 113 115 101
E 114 118 101
E 114 242 101
E 115 116 100
E 116 124 101
E 117 119 101
E 118 374 101
E 118 630 100
E 119 120 100
E 121 125 100
E 125 127 100
E 126 254 100
E 127 383 101
E 129 130 101
E 129 145 101
E 130 386 101
E 131 135 100
E 133 389 100
E 135 151 101
E 137 649 100
E 140 156 101
E 141 142 100
E 141 173 101
E 141 653 100
E 143 144 100
E 144 400 102
E 144 656 100
E 148 404 100
E 151 159 101
E 154 186 101
E 156 412 100
E 156 668 101
E 157 413 100
E 159 671 101
E 160 672 100
E 161 162 102
E 162 164 100
E 162 226 101
E 163 167 101
E 163 419 100
E 164 168 101
E 166 168 100
E 166 678 101
E 167 679 101
E 168 176 101
E 168 232 101
E 170 172 102
E 171 172 101
E 171 235 100
E 171 683 101
E 173 237 101
E 174 176 102
E 176 240 101
E 177 185 101
E 177 433 100
E 178 186 100
E 179 183 101
E 183 439 101
E 184 192 101
E 185 441 101
E 186 698 100
E 187 191 101
E 187 443 100
E 188 192 100
E 188 252 100
E 190 254 100
E 191 192 101
E 191 255 100
E 193 195 100
E 195 196 100
E 196 452 102
E 197 198 100
E 197 453 101
E 202 714 101
E 203 715 100
E 205 461 100
E 208 720 103
E 210 722 102
E 211 219 101
E 211 243 101
E 216 728 100
E 217 218 100
E 218 222 103
E 218 250 101
E 219 220 100
E 220 476 101
E 221 223 100
E 221 477 101
E 225 241 101
E 225 481 101
E 226 738 100
E 227 243 102
E 229 231 101
E 229 237 100
E 229 245 101
E 231 247 101
E 232 744 101
E 233 234 101
E 233 235 101
E 233 237 100
E 234 236 100
E 235 747 100
E 236 748 101
E 238 750 101
E 239 495 100
E 240 256 102
E 242 498 101
E 244 500 101
E 245 246 100
E 245 501 101
E 246 758 101
E 249 251 100
E 249 505 100
E 250 254 102
E 251 255 100
E 252 764 101
E 253 254 101
E 253 509 101
E 254 766 100
E 255 511 101
E 255 767 102
E 258 290 102
E 259 275 101
E 261 269 100
E 262 264 100
E 262 390 102
E 263 271 100
E 263 295 100
E 264 776 102
E 268 780 100
E 269 270 102
E 269 285 102
E 271 272 100
E 272 304 100
E 272 400 101
E 273 305 100
E 275 279 101
E 276 308 102
E 277 278 101
E 277 285 101
E 277 405 100
E 280 288 100
E 280 792 101
E 281 283 101
E 281 409 101
E 282 286 102
E 285 286 100
E 286 414 101
E 288 320 103
E 289 290 101
E 290 292 101
E 290 294 100
E 295 296 100
E 295 311 102
E 297 298 100
E 297 299 100
E 298 810 100
E 301 813 102
E 305 307 100
E 305 369 101
E 305 433 101
E 307 315 100
E 308 436 100
E 309 311 102
E 312 320 104
E 313 314 100
E 314 442 101
E 315 316 101
E 316 320 100
E 319 447 100
E 320 384 102
E 321 323 101
E 321 353 100
E 322 324 100
E 322 338 101
E 322 834 100
E 323 324 100
E 323 835 102
E 324 452 100
E 326 358 102
E 327 343 101
E 328 336 100
E 330 332 100
E 331 332 100
E 332 348 100
E 332 364 101
E 333 334 100
E 333 349 100
E 333 365 102
E 337 339 100
E 337 345 101
E 341 469 100
E 342 350 100
E 342 470 101
E 345 349 100
E 348 380 101
E 353 354 100
E 353 361 101
E 355 359 100
E 356 360 100
E 356 868 101
E 357 365 101
E 358 366 100
E 358 870 100
E 359 487 100
E 361 363 100
E 363 491 100
E 364 368 100
E 367 383 100
E 367 495 100
E 368 496 100
E 372 500 101
E 373 381 103
E 373 501 100
E 375 383 102
E 375 503 100
E 378 380 101
E 379 380 100
E 380 892 100
E 385 386 100
E 385 387 101
E 386 450 102
E 387 451 100
E 388 452 101
E 389 453 102
E 390 398 101
E 390 422 100
E 391 455 103
E 392 424 102
E 392 904 101
E 394 398 103
E 395 399 101
E 395 427 101
E 397 413 101
E 397 429 100
E 397 461 101
E 398 910 100
E 399 431 100
E 400 912 102
E 401 433 100
E 401 465 101
E 402 406 101
E 403 407 101
E 403 435 101
E 404 436 101
E 404 916 101
E 406 470 101
E 407 471 100
E 407 919 101
E 408 416 102
E 409 441 101
E 413 414 101
E 413 415 100
E 413 477 101
E 414 926 100
E 415 416 101
E 418 422 101
E 419 427 100
E 419 435 100
E 421 423 100
E 422 430 102
E 422 486 100
E 423 424 100
E 423 487 100
E 425 426 101
E 425 429 101
E 426 442 101
E 427 491 100
E 428 492 101
E 430 494 100
E 433 434 100
E 434 436 100
E 435 439 100
E 435 947 101
E 436 500 100
E 438 950 100
E 439 503 101
E 441 445 100
E 447 448 100
E 447 511 100
E 448 960 100
E 449 450 101
E 449 961 101
E 452 468 101
E 452 964 100
E 453 455 100
E 453 469 101
E 455 487 101
E 456 968 102
E 457 489 101
E 458 460 101
E 458 970 100
E 459 460 100
E 459 463 102
E 459 475 100
E 460 476 101
E 460 492 100
E 461 462 100
E 466 470 101
E 466 978 100
E 467 475 101
E 467 979 102
E 469 470 101
E 470 478 100
E 470 982 101
E 474 506 100
E 477 509 100
E 478 990 103
E 480 992 101
E 481 482 101
E 481 489 101
E 482 484 102
E 487 999 100
E 489 490 103
E 489 505 100
E 489 1001 101
E 491 507 101
E 492 1004 101
E 493 494 102
E 493 509 102
E 494 510 100
E 494 1006 102
E 499 507 100
E 500 1012 101
E 503 1015 101
E 504 1016 103
E 505 506 100
E 505 509 100
E 506 508 102
E 506 1018 101
E 511 1023 101
E 513 514 100
E 513 521 101
E 513 545 101
E 514 518 101
E 514 578 100
E 515 519 101
E 515 771 100
E 517 518 100
E 517 525 101
E 518 526 102
E 519 527 101
E 519 647 101
E 520 528 100
E 520 584 100
E 521 522 101
E 521 537 100
E 523 587 101
E 523 779 100
E 524 540 100
E 525 781 101
E 526 782 101
E 528 656 100
E 529 537 101
E 531 539 101
E 531 563 100
E 532 536 100
E 534 536 101
E 534 598 101
E 535 536 100
E 538 570 100
E 539 571 100
E 539 603 101
E 540 544 100
E 540 572 100
E 540 604 100
E 540 668 100
E 541 797 101
E 544 576 100
E 545 609 102
E 548 564 100
E 550 552 101
E 550 806 100
E 551 807 100
E 552 680 100
E 554 558 101
E 554 682 101
E 555 811 100
E 557 558 102
E 558 574 100
E 560 816 101
E 562 570 100
E 564 568 100
E 564 692 100
E 565 629 102
E 566 574 100
E 566 630 100
E 567 695 100
E 568 696 100
E 569 570 101
E 569 573 101
E 570 826 100
E 571 635 102
E 572 636 100
E 573 701 101
E 575 576 100
E 577 593 100
E 578 610 100
E 578 834 100
E 579 580 100
E 579 595 100
E 580 612 100
E 581 583 101
E 581 589 100
E 582 584 101
E 585 617 104
E 586 842 102
E 587 715 100
E 589 717 100
E 591 592 104
E 591 607 100
E 591 623 100
E 593 601 101
E 594 626 100
E 594 722 100
E 595 599 100
E 597 598 102
E 597 605 101
E 597 629 100
E 597 853 100
E 598 854 100
E 600 728 102
E 601 729 101
E 602 606 100
E 602 858 101
E 603 604 100
E 603 607 101
E 603 731 101
E 604 732 102
E 605 606 101
E 605 637 100
E 608 736 101
E 609 613 101
E 611 612 100
E 612 616 102
E 612 620 102
E 621 637 103
E 621 877 100
E 622 878 100
E 625 626 100
E 626 630 101
E 626 634 102
E 626 882 101
E 628 884 103
E 629 630 100
E 629 757 101
E 631 887 102
E 636 640 101
E 636 892 100
E 637 893 102
E 641 673 101
E 644 900 103
E 645 661 101
E 645 901 101
E 646 662 101
E 649 681 100
E 650 666 100
E 651 683 100
E 658 690 103
E 659 667 102
E 662 726 101
E 664 672 101
E 664 696 101
E 664 728 100
E 665 729 100
E 666 922 100
E 667 699 100
E 667 731 100
E 668 700 101
E 670 702 100
E 671 927 101
E 673 675 100
E 673 689 101
E 673 737 100
E 674 682 100
E 674 690 101
E 677 679 100
E 678 694 102
E 679 687 102
E 680 696 100
E 681 745 101
E 682 684 102
E 682 686 102
E 690 946 101
E 695 703 100
E 696 952 101
E 698 702 100
E 698 954 101
E 700 956 100
E 702 958 101
E 703 704 100
E 705 709 101
E 705 961 101
E 706 714 102
E 706 738 102
E 707 963 100
E 709 717 101
E 709 725 101
E 709 741 100
E 709 965 100
E 710 718 100
E 710 742 100
E 712 744 101
E 713 969 100
E 715 719 103
E 716 748 102
E 720 736 101
E 721 729 102
E 722 754 103
E 724 728 102
E 725 726 100
E 725 727 101
E 726 728 100
E 727 735 100
E 730 732 101
E 733 735 102
E 735 736 101
E 737 745 100
E 738 740 102
E 741 749 100
E 741 757 101
E 741 997 100
E 742 758 101
E 743 999 103
E 744 752 101
E 745 747 100
E 746 762 101
E 749 750 101
E 749 765 101
E 749 1005 100
E 753 755 100
E 753 757 100
E 758 1014 100
E 760 1016 102
E 761 762 100
E 761 765 100
E 769 771 100
E 770 786 101
E 770 898 100
E 771 772 103
E 771 775 101
E 771 803 101
E 774 902 100
E 776 840 100
E 778 842 101
E 779 780 100
E 780 844 100
E 782 784 101
E 785 789 101
E 785 817 100
E 787 819 102
E 788 852 100
E 788 916 101
E 789 791 101
E 789 797 100
E 789 917 101
E 790 798 100
E 790 822 100
E 790 918 101
E 791 799 100
E 793 825 100
E 795 827 102
E 795 923 100
E 796 828 102
E 797 829 101
E 802 810 101
E 802 866 101
E 803 807 100
E 805 806 102
E 805 821 101
E 806 822 101
E 808 872 100
E 809 811 100
E 809 825 100
E 811 815 101
E 811 875 101
E 812 876 100
E 813 829 101
E 814 816 102
E 816 832 100
E 816 880 100
E 817 819 100
E 817 825 101
E 819 827 100
E 820 824 100
E 821 823 100
E 822 824 100
E 822 830 100
E 827 891 102
E 828 832 101
E 828 892 100
E 830 958 100
E 834 866 101
E 837 869 101
E 839 847 100
E 839 967 101
E 841 842 104
E 842 846 100
E 844 848 100
E 844 876 100
E 846 848 101
E 846 878 101
E 848 864 100
E 849 881 100
E 853 855 100
E 853 981 100
E 855 863 100
E 857 859 100
E 857 861 100
E 857 985 102
E 859 863 101
E 863 895 100
E 864 896 100
E 864 992 101
E 865 867 101
E 867 868 100
E 867 883 100
E 868 996 100
E 869 870 101
E 870 878 101
E 871 887 100
E 872 888 100
E 873 874 102
E 873 1001 100
E 875 879 101
E 878 894 100
E 879 1007 100
E 881 889 101
E 881 1009 100
E 883 1011 100
E 884 1012 100
E 885 893 101
E 887 895 103
E 888 896 100
E 889 891 100
E 895 1023 100
E 898 914 102
E 898 930 100
E 899 900 102
E 900 964 101
E 901 903 102
E 901 965 101
E 902 918 100
E 903 967 100
E 905 921 100
E 905 969 101
E 908 912 100
E 909 911 101
E 909 941 101
E 913 917 101
E 914 946 100
E 921 985 100
E 922 926 101
E 925 926 102
E 927 928 100
E 929 937 101
E 930 934 100
E 932 936 102
E 933 949 102
E 933 997 101
E 935 936 101
E 935 999 100
E 936 944 100
E 937 941 100
E 937 1001 100
E 938 954 101
E 939 940 100
E 940 944 100
E 940 1004 100
E 950 1014 100
E 953 955 101
E 955 959 101
E 955 1019 101
E 960 1024 100
E 963 967 100
E 963 971 102
E 965 966 101
E 968 984 101
E 971 972 100
E 971 975 100
E 972 976 103
E 972 988 100
E 973 975 100
E 982 984 100
E 985 989 101
E 989 991 102
E 989 1021 101
E 994 996 100
E 995 996 100
E 996 1000 100
E 996 1012 100
E 999 1000 100
E 1005 1007 101
E 1011 1019 100
E 1016 1024 100
END
SECTION Terminals
T 1
T 4
T 6
T 7
T 10
T 11
T 13
T 16
T 18
T 19
T 21
T 24
T 25
T 28
T 30
T 31
T 34
T 35
T 37
T 40
T 41
T 44
T 46
T 47
T 49
T 52
T 54
T 55
T 58
T 59
T 61
T 64
T 66
T 67
T 69
T 72
T 73
T 76
T 78
T 79
T 81
T 84
T 86
T 87
T 90
T 91
T 93
T 96
T 97
T 100
T 102
T 103
T 106
T 107
T 109
T 112
T 114
T 115
T 117
T 120
T 121
T 124
T 126
T 127
T 130
T 131
T 133
T 136
T 137
T 140
T 142
T 143
T 145
T 148
T 150
T 151
T 154
T 155
T 157
T 160
T 161
T 164
T 166
T 167
T 170
T 171
T 173
T 176
T 178
T 179
T 181
T 184
T 185
T 188
T 190
T 191
T 193
T 196
T 198
T 199
T 202
T 203
T 205
T 208
T 210
T 211
T 213
T 216
T 217
T 220
T 222
T 223
T 226
T 227
T 229
T 232
T 233
T 236
T 238
T 239
T 241
T 244
T 246
T 247
T 250
T 251
T 253
T 256
T 258
T 259
T 261
T 264
T 265
T 268
T 270
T 271
T 273
T 276
T 278
T 279
T 282
T 283
T 285
T 288
T 289
T 292
T 294
T 295
T 298
T 299
T 301
T 304
T 306
T 307
T 309
T 312
T 313
T 316
T 318
T 319
T 321
T 324
T 326
T 327
T 330
T 331
T 333
T 336
T 338
T 339
T 341
T 344
T 345
T 348
T 350
T 351
T 354
T 355
T 357
T 360
T 361
T 364
T 366
T 367
T 369
T 372
T 374
T 375
T 378
T 379
T 381
T 384
T 385
T 388
T 390
T 391
T 394
T 395
T 397
T 400
T 402
T 403
T 405
T 408
T 409
T 412
T 414
T 415
T 418
T 419
T 421
T 424
T 425
T 428
T 430
T 431
T 433
T 436
T 438
T 439
T 442
T 443
T 445
T 448
T 450
T 451
T 453
T 456
T 457
T 460
T 462
T 463
T 465
T 468
T 470
T 471
T 474
T 475
T 477
T 480
T 481
T 484
T 486
T 487
T 490
T 491
T 493
T 496
T 498
T 499
T 501
T 504
T 505
T 508
T 510
T 511
T 514
T 515
T 517
T 520
T 521
T 524
T 526
T 527
T 529
T 532
T 534
T 535
T 538
T 539
T 541
T 544
T 545
T 548
T 550
T 551
T 554
T 555
T 557
T 560
T 562
T 563
T 565
T 568
T 569
T 572
T 574
T 575
T 577
T 580
T 582
T 583
T 586
T 587
T 589
T 592
T 594
T 595
T 597
T 600
T 601
T 604
T 606
T 607
T 610
T 611
T 613
T 616
T 617
T 620
T 622
T 623
T 625
T 628
T 630
T 631
T 634
T 635
T 637
T 640
T 641
T 644
T 646
T 647
T 650
T 651
T 653
T 656
T 658
T 659
T 661
T 664
T 665
T 668
T 670
T 671
T 674
T 675
T 677
T 680
T 681
T 684
T 686
T 687
T 689
T 692
T 694
T 695
T 698
T 699
T 701
T 704
T 706
T 707
T 709
T 712
T 713
T 716
T 718
T 719
T 721
T 724
T 726
T 727
T 730
T 731
T 733
T 736
T 737
T 740
T 742
T 743
T 746
T 747
T 749
T 752
T 754
T 755
T 757
T 760
T 761
T 764
T 766
T 767
T 769
T 772
T 774
T 775
T 778
T 779
T 781
T 784
T 786
T 787
T 789
T 792
T 793
T 796
T 798
T 799
T 802
T 803
T 805
T 808
T 809
T 812
T 814
T 815
T 817
T 820
T 822
T 823
T 826
T 827
T 829
T 832
T 834
T 835
T 837
T 840
T 841
T 844
T 846
T 847
T 849
T 852
T 854
T 855
T 858
T 859
T 861
T 864
T 865
T 868
T 870
T 871
T 874
T 875
T 877
T 880
T 882
T 883
T 885
T 888
T 889
T 892
T 894
T 895
T 898
T 899
T 901
T 904
T 905
T 908
T 910
T 911
T 913
T 916
T 918
T 919
T 922
T 923
T 925
T 928
T 929
T 932
T 934
T 935
T 938
T 939
T 941
T 944
T 946
T 947
T 949
T 952
T 953
T 956
T 958
T 959
T 961
T 964
T 966
T 967
T 970
T 971
T 973
T 976
T 978
T 979
T 981
T 984
T 985
T 988
T 990
T 991
T 994
T 995
T 997
T 1000
T 1001
T 1004
T 1006
T 1007
T 1009
T 1012
T 1014
T 1015
T 1018
T 1019
T 1021
T 1024
END
SECTION Cost
81675
END
